2025-12-04 14:11:36,172 - INFO - [Scaling] length 1197 → 1238
2025-12-04 14:11:36,404 - INFO - 🧮 参数显存统计（单位：MB）
2025-12-04 14:11:36,404 - INFO - [参数显存] euclidean 总计: 1.3238 MB
2025-12-04 14:11:36,404 - INFO - [参数显存] euclidean 长度=123: 0.0366 MB
2025-12-04 14:11:36,404 - INFO - [参数显存] euclidean 长度=246: 0.0732 MB
2025-12-04 14:11:36,404 - INFO - [参数显存] euclidean 长度=370: 0.1101 MB
2025-12-04 14:11:36,404 - INFO - [参数显存] euclidean 长度=494: 0.1470 MB
2025-12-04 14:11:36,404 - INFO - [参数显存] euclidean 长度=618: 0.1839 MB
2025-12-04 14:11:36,404 - INFO - [参数显存] euclidean 长度=742: 0.2208 MB
2025-12-04 14:11:36,404 - INFO - [参数显存] euclidean 长度=866: 0.2577 MB
2025-12-04 14:11:36,404 - INFO - [参数显存] euclidean 长度=990: 0.2946 MB
2025-12-04 14:11:36,404 - INFO - [参数显存] cosine 总计: 1.3238 MB
2025-12-04 14:11:36,405 - INFO - [参数显存] cosine 长度=123: 0.0366 MB
2025-12-04 14:11:36,405 - INFO - [参数显存] cosine 长度=246: 0.0732 MB
2025-12-04 14:11:36,405 - INFO - [参数显存] cosine 长度=370: 0.1101 MB
2025-12-04 14:11:36,405 - INFO - [参数显存] cosine 长度=494: 0.1470 MB
2025-12-04 14:11:36,405 - INFO - [参数显存] cosine 长度=618: 0.1839 MB
2025-12-04 14:11:36,405 - INFO - [参数显存] cosine 长度=742: 0.2208 MB
2025-12-04 14:11:36,405 - INFO - [参数显存] cosine 长度=866: 0.2577 MB
2025-12-04 14:11:36,405 - INFO - [参数显存] cosine 长度=990: 0.2946 MB
2025-12-04 14:11:36,405 - INFO - [参数显存] 模型参数总量: 1,188,076，显存: 4.5322 MB
2025-12-04 14:11:37,081 - INFO - 📌 第一个 epoch：默认所有模块使用 checkpoint
2025-12-04 14:11:38,304 - INFO - Epoch 1 completed in 1.227792 seconds
2025-12-04 14:11:38,849 - INFO - torch.cuda.max_memory_reserved() : 7.974609375
2025-12-04 14:11:38,849 - INFO - torch.cuda.max_memory_allocated() : 2.303988456726074
2025-12-04 14:11:39,479 - INFO - 
[🔁 拟合反向传播时间模型]
2025-12-04 14:11:39,480 - INFO - 总反向传播时间: 0.605178s
2025-12-04 14:11:39,480 - INFO - 拟合模型: backward_total ≈ 2 × (A + B) + b
2025-12-04 14:11:39,480 - INFO - A = 1.046594, B = 0.021044, b = -0.462459s
2025-12-04 14:11:39,525 - INFO - Set parameter LicenseID to value 2706656
2025-12-04 14:11:39,550 - INFO - Set parameter LogToConsole to value 1
2025-12-04 14:11:39,551 - INFO - Set parameter LogFile to value ""
2025-12-04 14:11:39,551 - INFO - Set parameter Threads to value 12
2025-12-04 14:11:39,551 - INFO - Set parameter TimeLimit to value 3600
2025-12-04 14:11:39,551 - INFO - Set parameter OptimalityTol to value 0.0001
2025-12-04 14:11:39,551 - INFO - Set parameter IntFeasTol to value 1e-05
2025-12-04 14:11:39,552 - INFO - Set parameter StartNodeLimit to value 10000000
2025-12-04 14:11:39,609 - INFO - Set parameter TimeLimit to value 3600
2025-12-04 14:11:39,610 - INFO - 
2025-12-04 14:11:39,610 - INFO - 
2025-12-04 14:11:39,610 - INFO - Restarting solve
2025-12-04 14:11:39,610 - INFO - 
2025-12-04 14:11:39,610 - INFO - 
2025-12-04 14:11:39,611 - INFO - Gurobi Optimizer version 12.0.3 build v12.0.3rc0 (linux64 - "Ubuntu 20.04.6 LTS")
2025-12-04 14:11:39,611 - INFO - 
2025-12-04 14:11:39,611 - INFO - CPU model: Intel(R) Xeon(R) Platinum 8260 CPU @ 2.40GHz, instruction set [SSE2|AVX|AVX2|AVX512]
2025-12-04 14:11:39,611 - INFO - Thread count: 48 physical cores, 96 logical processors, using up to 12 threads
2025-12-04 14:11:39,611 - INFO - 
2025-12-04 14:11:39,612 - INFO - Non-default parameters:
2025-12-04 14:11:39,612 - INFO - TimeLimit  3600
2025-12-04 14:11:39,612 - INFO - OptimalityTol  0.0001
2025-12-04 14:11:39,612 - INFO - StartNodeLimit  10000000
2025-12-04 14:11:39,612 - INFO - Threads  12
2025-12-04 14:11:39,612 - INFO - 
2025-12-04 14:11:39,612 - INFO - Optimize a model with 5603 rows, 3584 columns and 15200 nonzeros
2025-12-04 14:11:39,612 - INFO - Model fingerprint: 0x1584e212
2025-12-04 14:11:39,612 - INFO - Variable types: 1024 continuous, 2560 integer (2560 binary)
2025-12-04 14:11:39,612 - INFO - Coefficient statistics:
2025-12-04 14:11:39,612 - INFO -   Matrix range     [1e+00, 3e+15]
2025-12-04 14:11:39,612 - INFO -   Objective range  [5e+04, 2e+06]
2025-12-04 14:11:39,612 - INFO -   Bounds range     [1e+00, 2e+16]
2025-12-04 14:11:39,612 - INFO -   RHS range        [1e+00, 2e+16]
2025-12-04 14:11:39,612 - INFO - Warning: Model contains large matrix coefficient range
2025-12-04 14:11:39,612 - INFO - Warning: Model contains large rhs
2025-12-04 14:11:39,612 - INFO - Warning: Model contains large bounds
2025-12-04 14:11:39,612 - INFO -          Consider reformulating model or setting NumericFocus parameter
2025-12-04 14:11:39,612 - INFO -          to avoid numerical issues.
2025-12-04 14:11:39,626 - INFO - Presolve removed 4283 rows and 1964 columns
2025-12-04 14:11:39,626 - INFO - Presolve time: 0.01s
2025-12-04 14:11:39,626 - INFO - Presolved: 1320 rows, 1620 columns, 4514 nonzeros
2025-12-04 14:11:39,628 - INFO - Variable types: 0 continuous, 1620 integer (1095 binary)
2025-12-04 14:11:39,638 - INFO - 
2025-12-04 14:11:39,638 - INFO - Root relaxation: objective 2.760153e+07, 430 iterations, 0.00 seconds (0.00 work units)
2025-12-04 14:11:39,641 - INFO - 
2025-12-04 14:11:39,641 - INFO -     Nodes    |    Current Node    |     Objective Bounds      |     Work
2025-12-04 14:11:39,641 - INFO -  Expl Unexpl |  Obj  Depth IntInf | Incumbent    BestBd   Gap | It/Node Time
2025-12-04 14:11:39,641 - INFO - 
2025-12-04 14:11:39,641 - INFO -      0     0 2.7602e+07    0    8          - 2.7602e+07      -     -    0s
2025-12-04 14:11:39,664 - INFO - H    0     0                    4.140229e+07 2.7602e+07  33.3%     -    0s
2025-12-04 14:11:39,666 - INFO - *    0     0               0    2.760153e+07 2.7602e+07  0.00%     -    0s
2025-12-04 14:11:39,667 - INFO - 
2025-12-04 14:11:39,667 - INFO - Cutting planes:
2025-12-04 14:11:39,667 - INFO -   Cover: 8
2025-12-04 14:11:39,667 - INFO - 
2025-12-04 14:11:39,667 - INFO - Explored 1 nodes (438 simplex iterations) in 0.06 seconds (0.03 work units)
2025-12-04 14:11:39,667 - INFO - Thread count was 12 (of 96 available processors)
2025-12-04 14:11:39,667 - INFO - 
2025-12-04 14:11:39,667 - INFO - Solution count 2: 2.76015e+07 4.14023e+07 
2025-12-04 14:11:39,667 - INFO - 
2025-12-04 14:11:39,667 - INFO - Optimal solution found (tolerance 1.00e-04)
2025-12-04 14:11:39,667 - INFO - Best objective 2.760152600000e+07, best bound 2.760152600000e+07, gap 0.0000%
2025-12-04 14:11:39,678 - INFO - 规划前的显存GB：18.0
2025-12-04 14:11:39,678 - INFO - 规划后的显存GB：17.251430988311768
2025-12-04 14:11:39,678 - INFO - 规划前的显存GB：18.0
2025-12-04 14:11:39,678 - INFO - 规划后的显存GB：7.054209880530834
2025-12-04 14:11:39,678 - INFO - ✅ 最优策略：[1, 1, 1, 1, 1, 1, 1, 1, 1, 1, 1, 1, 1, 1, 1, 1]
2025-12-04 14:11:39,678 - INFO - 📌 checkpoint 的欧氏长度:, []
2025-12-04 14:11:39,678 - INFO - 📌 checkpoint 的余弦长度:, []
2025-12-04 14:11:39,678 - INFO - 💾 最终显存峰值：%.2f MB % 15171.386581420898
2025-12-04 14:11:39,678 - INFO - 🕒 显存计划规划时间: 0.20 秒
2025-12-04 14:11:39,678 - INFO - Epoch 2 completed in 0.828790 seconds
2025-12-04 14:11:39,678 - INFO - torch.cuda.max_memory_reserved() : 7.974609375
2025-12-04 14:11:39,679 - INFO - torch.cuda.max_memory_allocated() : 2.303988456726074
2025-12-04 14:11:40,121 - INFO - Epoch 3 completed in 0.442061 seconds
2025-12-04 14:11:40,121 - INFO - 
====================== [第1个 Epoch 收集统计数据] ======================
2025-12-04 14:11:40,121 - INFO - 
🔍 EUCLIDEAN modules:
2025-12-04 14:11:40,121 - INFO - [Shapelet 123] forward_avg=0.019138s over 2 calls | peak=613.82MB | final=0.00MB
2025-12-04 14:11:40,121 - INFO - [Shapelet 246] forward_avg=0.010552s over 2 calls | peak=1084.24MB | final=0.00MB
2025-12-04 14:11:40,121 - INFO - [Shapelet 370] forward_avg=0.018514s over 2 calls | peak=1425.61MB | final=0.00MB
2025-12-04 14:11:40,121 - INFO - [Shapelet 494] forward_avg=0.018966s over 2 calls | peak=1633.63MB | final=0.00MB
2025-12-04 14:11:40,121 - INFO - [Shapelet 618] forward_avg=0.020725s over 2 calls | peak=1702.21MB | final=0.00MB
2025-12-04 14:11:40,122 - INFO - [Shapelet 742] forward_avg=0.018258s over 2 calls | peak=1638.02MB | final=0.00MB
2025-12-04 14:11:40,122 - INFO - [Shapelet 866] forward_avg=0.014474s over 2 calls | peak=1439.06MB | final=0.00MB
2025-12-04 14:11:40,122 - INFO - [Shapelet 990] forward_avg=0.012119s over 2 calls | peak=1104.72MB | final=0.00MB
2025-12-04 14:11:40,122 - INFO - 
🔍 COSINE modules:
2025-12-04 14:11:40,122 - INFO - [Shapelet 123] forward_avg=0.003541s over 2 calls | peak=403.79MB | final=0.00MB
2025-12-04 14:11:40,122 - INFO - [Shapelet 246] forward_avg=0.003891s over 2 calls | peak=717.11MB | final=0.00MB
2025-12-04 14:11:40,122 - INFO - [Shapelet 370] forward_avg=0.005257s over 2 calls | peak=943.72MB | final=0.00MB
2025-12-04 14:11:40,122 - INFO - [Shapelet 494] forward_avg=0.007635s over 2 calls | peak=1081.09MB | final=0.00MB
2025-12-04 14:11:40,122 - INFO - [Shapelet 618] forward_avg=0.008495s over 2 calls | peak=1125.26MB | final=0.00MB
2025-12-04 14:11:40,122 - INFO - [Shapelet 742] forward_avg=0.004900s over 2 calls | peak=1081.12MB | final=0.00MB
2025-12-04 14:11:40,122 - INFO - [Shapelet 866] forward_avg=0.004450s over 2 calls | peak=947.72MB | final=0.00MB
2025-12-04 14:11:40,122 - INFO - [Shapelet 990] forward_avg=0.003517s over 2 calls | peak=724.36MB | final=0.00MB
2025-12-04 14:11:40,122 - INFO - 
🔍 CROSS modules:
2025-12-04 14:11:40,122 - INFO - [Shapelet 123] forward_avg=0.000511s over 2 calls
2025-12-04 14:11:40,122 - INFO - [Shapelet 246] forward_avg=0.000634s over 2 calls
2025-12-04 14:11:40,122 - INFO - [Shapelet 370] forward_avg=0.000661s over 2 calls
2025-12-04 14:11:40,122 - INFO - [Shapelet 494] forward_avg=0.000670s over 2 calls
2025-12-04 14:11:40,122 - INFO - [Shapelet 618] forward_avg=0.000701s over 2 calls
2025-12-04 14:11:40,122 - INFO - [Shapelet 742] forward_avg=0.000770s over 2 calls
2025-12-04 14:11:40,122 - INFO - [Shapelet 866] forward_avg=0.000684s over 2 calls
2025-12-04 14:11:40,122 - INFO - [Shapelet 990] forward_avg=0.000630s over 2 calls
2025-12-04 14:11:40,122 - INFO - 
💾 模型第一次反向传播阶段的显存峰值（所有模块中的最大值）: 11502.27 MB
2025-12-04 14:11:40,122 - INFO - 
💾 模型初始显存: 6.37 MB
2025-12-04 14:11:40,122 - INFO - =======================================================================

2025-12-04 14:11:40,122 - INFO - torch.cuda.max_memory_reserved() : 16.078125
2025-12-04 14:11:40,123 - INFO - torch.cuda.max_memory_allocated() : 14.486224174499512
2025-12-04 14:11:40,545 - INFO - Epoch 4 completed in 0.422025 seconds
2025-12-04 14:11:40,546 - INFO - torch.cuda.max_memory_reserved() : 16.078125
2025-12-04 14:11:40,546 - INFO - torch.cuda.max_memory_allocated() : 14.48613452911377
2025-12-04 14:11:40,958 - INFO - Epoch 5 completed in 0.411220 seconds
2025-12-04 14:11:40,959 - INFO - torch.cuda.max_memory_reserved() : 16.078125
2025-12-04 14:11:40,960 - INFO - torch.cuda.max_memory_allocated() : 14.48613452911377
2025-12-04 14:11:41,390 - INFO - Epoch 6 completed in 0.429645 seconds
2025-12-04 14:11:41,391 - INFO - torch.cuda.max_memory_reserved() : 16.078125
2025-12-04 14:11:41,391 - INFO - torch.cuda.max_memory_allocated() : 14.48613452911377
2025-12-04 14:11:41,807 - INFO - Epoch 7 completed in 0.414372 seconds
2025-12-04 14:11:41,807 - INFO - torch.cuda.max_memory_reserved() : 16.078125
2025-12-04 14:11:41,808 - INFO - torch.cuda.max_memory_allocated() : 14.48613452911377
2025-12-04 14:11:42,226 - INFO - Epoch 8 completed in 0.417216 seconds
2025-12-04 14:11:42,226 - INFO - torch.cuda.max_memory_reserved() : 16.078125
2025-12-04 14:11:42,227 - INFO - torch.cuda.max_memory_allocated() : 14.48613452911377
2025-12-04 14:11:42,687 - INFO - Epoch 9 completed in 0.459141 seconds
2025-12-04 14:11:42,688 - INFO - torch.cuda.max_memory_reserved() : 16.078125
2025-12-04 14:11:42,688 - INFO - torch.cuda.max_memory_allocated() : 14.48613452911377
2025-12-04 14:11:43,107 - INFO - Epoch 10 completed in 0.418680 seconds
2025-12-04 14:11:43,621 - INFO - torch.cuda.max_memory_reserved() : 16.078125
2025-12-04 14:11:43,621 - INFO - torch.cuda.max_memory_allocated() : 14.48613452911377
2025-12-04 14:11:43,621 - INFO - !!!采用策略后的几个epoch 平均时间:0.4267951250076294
2025-12-04 14:11:43,621 - INFO - 



